Problem:    
Rows:       260
Columns:    89 (72 integer, 72 binary)
Non-zeros:  812
Status:     INTEGER OPTIMAL
Objective:  value = 59.317312 (MINimum)

   No.   Row name        Activity     Lower bound   Upper bound
------ ------------    ------------- ------------- -------------
     1 r.5                   59.3173             0               
     2 r.6                   25.8532       -981.43               
     3 r.7                   1059.32             0               
     4 r.8                  -974.147       -976.38               
     5 r.9                   1059.32             0               
     6 r.10                 -966.814      -981.394               
     7 r.11                  59.3173             0               
     8 r.12                  33.1861      -976.314               
     9 r.13                  1059.32             0               
    10 r.14                 -994.262      -998.261               
    11 r.15                  59.3173             0               
    12 r.16                 -993.077      -994.311               
    13 r.17                  1059.32             0               
    14 r.18                 -996.001      -997.235               
    15 r.19                  59.3173             0               
    16 r.20                 -985.503      -986.737               
    17 r.21                  1059.32             0               
    18 r.22                  -985.42      -991.159               
    19 r.23                  59.3173             0               
    20 r.24                 -988.414      -989.648               
    21 r.25                  1059.32             0               
    22 r.26                 -998.766      -998.766               
    23 r.27                  59.3173             0               
    24 r.28                   1.2341      -998.397               
    25 r.29                  1059.32             0               
    26 r.30                 -940.683      -973.869               
    27 r.31                  59.3173             0               
    28 r.32                  59.3173       -961.01               
    29 r.33                  59.3173             0               
    30 r.34                  59.3173      -974.097               
    31 r.35                  1059.32             0               
    32 r.36                 -940.683      -966.536               
    33 r.37                        1             1             = 
    34 r.38                        1             1             = 
    35 r.39                        1             1             = 
    36 r.40                        1             1             = 
    37 r.41                        1             1             = 
    38 r.42                        1             1             = 
    39 r.43                        1             1             = 
    40 r.44                        1             1             = 
    41 r.45                     1001             2               
    42 r.46                    -1001         -1001               
    43 r.47                  2007.33      -981.394               
    44 r.48                     1001             2               
    45 r.49                    -1001         -1001               
    46 r.50                  2007.33      -976.314               
    47 r.51                     1001             2               
    48 r.52                    -1001         -1001               
    49 r.53                  1979.89      -998.261               
    50 r.54                     1001             2               
    51 r.55                    -1001         -1001               
    52 r.56                   981.07      -994.311               
    53 r.57                     1001             2               
    54 r.58                    -1001         -1001               
    55 r.59                  1978.15      -997.235               
    56 r.60                     1001             2               
    57 r.61                    -1001         -1001               
    58 r.62                  988.643      -986.737               
    59 r.63                     1001             2               
    60 r.64                    -1001         -1001               
    61 r.65                  1988.73      -991.159               
    62 r.66                     1001             2               
    63 r.67                    -1001         -1001               
    64 r.68                  985.733      -989.648               
    65 r.69                  24.6191       -981.43               
    66 r.70                 -975.381       -976.38               
    67 r.71                  24.6191       -981.43               
    68 r.72                 -975.381       -976.38               
    69 r.73                 -966.536      -973.869               
    70 r.74                  33.4641       -961.01               
    71 r.75                 -966.536      -973.869               
    72 r.76                  33.4641       -961.01               
    73 r.77                  33.4641      -974.097               
    74 r.78                 -966.536      -966.536               
    75 r.79                  33.4641      -974.097               
    76 r.80                 -966.536      -966.536               
    77 r.81                     1001             2               
    78 r.82                    -1001         -1001               
    79 r.83                  1992.67       18.5697               
    80 r.84                     1001             2               
    81 r.85                    -1001         -1001               
    82 r.86                  1992.67       23.6196               
    83 r.87                        2             2               
    84 r.88                       -2         -1001               
    85 r.89                 -27.4477      -998.261               
    86 r.90                     1000             2               
    87 r.91                    -1000         -1001               
    88 r.92                  973.737      -994.311               
    89 r.93                        2             2               
    90 r.94                       -2         -1001               
    91 r.95                  -29.187      -997.235               
    92 r.96                     1000             2               
    93 r.97                    -1000         -1001               
    94 r.98                  981.311      -986.737               
    95 r.99                        2             2               
    96 r.100                      -2         -1001               
    97 r.101                -18.6063      -991.159               
    98 r.102                    1000             2               
    99 r.103                   -1000         -1001               
   100 r.104                   978.4      -989.648               
   101 r.105                -968.048      -981.394               
   102 r.106                  31.952      -976.314               
   103 r.107                -968.048      -981.394               
   104 r.108                  31.952      -976.314               
   105 r.109                -973.869      -973.869               
   106 r.110                 26.1312       -961.01               
   107 r.111                -973.869      -973.869               
   108 r.112                 26.1312       -961.01               
   109 r.113                    1001             2               
   110 r.114                   -1001         -1001               
   111 r.115                 2026.13      -974.097               
   112 r.116                    1001             2               
   113 r.117                   -1001         -1001               
   114 r.118                 2026.13      -966.536               
   115 r.119                    1001             2               
   116 r.120                   -1001         -1001               
   117 r.121                 2020.11       18.5697               
   118 r.122                    1001             2               
   119 r.123                   -1001         -1001               
   120 r.124                 3018.93       23.6196               
   121 r.125                       2             2               
   122 r.126                      -2         -1001               
   123 r.127                 27.4477       18.6063               
   124 r.128                    1000             2               
   125 r.129                   -1000         -1001               
   126 r.130                 3026.26        23.686               
   127 r.131                       2             2               
   128 r.132                      -2         -1001               
   129 r.133                -1.73923      -997.235               
   130 r.134                    1000             2               
   131 r.135                   -1000         -1001               
   132 r.136                 2007.57      -986.737               
   133 r.137                       2             2               
   134 r.138                      -2         -1001               
   135 r.139                -991.159      -991.159               
   136 r.140                    1000             2               
   137 r.141                   -1000         -1001               
   138 r.142                 2004.66      -989.648               
   139 r.143                -995.496      -998.261               
   140 r.144                -994.311      -994.311               
   141 r.145                -995.496      -998.261               
   142 r.146                -994.311      -994.311               
   143 r.147                -946.421      -973.869               
   144 r.148                 53.5789       -961.01               
   145 r.149                 52.3944      -973.869               
   146 r.150                 1052.39       -961.01               
   147 r.151                 53.5789      -974.097               
   148 r.152                -946.421      -966.536               
   149 r.153                 1052.39      -974.097               
   150 r.154                 52.3944      -966.536               
   151 r.155                    1001             2               
   152 r.156                   -1001         -1001               
   153 r.157                 2021.85       18.5697               
   154 r.158                    1001             2               
   155 r.159                   -1001         -1001               
   156 r.160                 3011.36       23.6196               
   157 r.161                       2             2               
   158 r.162                      -2         -1001               
   159 r.163                  29.187       18.6063               
   160 r.164                    1000             2               
   161 r.165                   -1000         -1001               
   162 r.166                 3018.69        23.686               
   163 r.167                       2             2               
   164 r.168                      -2         -1001               
   165 r.169                 1.73923       1.73923               
   166 r.170                    1000             2               
   167 r.171                   -1000         -1001               
   168 r.172                 1992.43       5.68881               
   169 r.173                       2             2               
   170 r.174                      -2         -1001               
   171 r.175                -989.419      -991.159               
   172 r.176                    1000             2               
   173 r.177                   -1000         -1001               
   174 r.178                 1997.09      -989.648               
   175 r.179                -997.235      -997.235               
   176 r.180                -986.737      -986.737               
   177 r.181                -997.235      -997.235               
   178 r.182                -986.737      -986.737               
   179 r.183                -944.682      -973.869               
   180 r.184                 55.3182       -961.01               
   181 r.185                 44.8206      -973.869               
   182 r.186                 1044.82       -961.01               
   183 r.187                    1001             2               
   184 r.188                   -1001         -1001               
   185 r.189                 2055.32      -974.097               
   186 r.190                    1001             2               
   187 r.191                   -1001         -1001               
   188 r.192                 3044.82      -966.536               
   189 r.193                    1001             2               
   190 r.194                   -1001         -1001               
   191 r.195                 2011.27       18.5697               
   192 r.196                    1001             2               
   193 r.197                   -1001         -1001               
   194 r.198                 3014.27       23.6196               
   195 r.199                       2             2               
   196 r.200                      -2         -1001               
   197 r.201                 18.6063       18.6063               
   198 r.202                    1000             2               
   199 r.203                   -1000         -1001               
   200 r.204                  3021.6        23.686               
   201 r.205                       2             2               
   202 r.206                      -2         -1001               
   203 r.207                 991.159       1.73923               
   204 r.208                    1000             2               
   205 r.209                   -1000         -1001               
   206 r.210                 1995.34       5.68881               
   207 r.211                       2             2               
   208 r.212                      -2         -1001               
   209 r.213                 989.419       2.76505               
   210 r.214                    1000             2               
   211 r.215                   -1000         -1001               
   212 r.216                 2002.91       13.2626               
   213 r.217                -986.654      -991.159               
   214 r.218                -989.648      -989.648               
   215 r.219                -986.654      -991.159               
   216 r.220                -989.648      -989.648               
   217 r.221                       2             2               
   218 r.222                      -2         -1001               
   219 r.223                -955.262      -973.869               
   220 r.224                    1000             2               
   221 r.225                   -1000         -1001               
   222 r.226                 3047.73       -961.01               
   223 r.227                 44.7375      -974.097               
   224 r.228                -955.262      -966.536               
   225 r.229                 1047.73      -974.097               
   226 r.230                  47.731      -966.536               
   227 r.231                -941.917      -973.869               
   228 r.232                 58.0832       -961.01               
   229 r.233                -941.917      -973.869               
   230 r.234                 58.0832       -961.01               
   231 r.235                       2             2               
   232 r.236                      -2         -1001               
   233 r.237                 955.262       8.84141               
   234 r.238                    1000             2               
   235 r.239                   -1000         -1001               
   236 r.240                 952.269       10.3522               
   237 r.241                    1001             2               
   238 r.242                   -1001         -1001               
   239 r.243                    2000      -974.097               
   240 r.244                    1001             2               
   241 r.245                   -1001         -1001               
   242 r.246                    2000      -966.536               
   243 r.247                    1001             2               
   244 r.248                   -1001         -1001               
   245 r.249                 1973.87       18.6063               
   246 r.250                    1001             2               
   247 r.251                   -1001         -1001               
   248 r.252                 1973.87        23.686               
   249 r.253                    1001             2               
   250 r.254                   -1001         -1001               
   251 r.255                 1944.68       2.76505               
   252 r.256                    1001             2               
   253 r.257                   -1001         -1001               
   254 r.258                 955.179       13.2626               
   255 r.259                    1001             2               
   256 r.260                   -1001         -1001               
   257 r.261                    2000       26.1312               
   258 r.262                    1001             2               
   259 r.263                   -1001         -1001               
   260 r.264                    2000       38.9905               

   No. Column name       Activity     Lower bound   Upper bound
------ ------------    ------------- ------------- -------------
     1 tt                    59.3173             0               
     2 s_1_1        *              0             0             1 
     3 t_1_1                 33.4641             0               
     4 s_1_8        *              0             0             1 
     5 s_1_7        *              1             0             1 
     6 s_2_1        *              1             0             1 
     7 t_2_1                 33.4641             0               
     8 s_2_8        *              1             0             1 
     9 s_2_7        *              0             0             1 
    10 s_1_2        *              1             0             1 
    11 t_1_2                 26.1312             0               
    12 s_2_2        *              0             0             1 
    13 t_2_2                 26.1312             0               
    14 s_1_3        *              1             0             1 
    15 t_1_3                 53.5789             0               
    16 s_2_3        *              0             0             1 
    17 t_2_3                 1052.39             0               
    18 s_1_4        *              1             0             1 
    19 t_1_4                 55.3182             0               
    20 s_2_4        *              0             0             1 
    21 t_2_4                 1044.82             0               
    22 s_1_5        *              1             0             1 
    23 t_1_5                 44.7375             0               
    24 s_2_5        *              0             0             1 
    25 t_2_5                 1047.73             0               
    26 s_1_6        *              1             0             1 
    27 t_1_6                 58.0832             0               
    28 s_2_6        *              0             0             1 
    29 t_2_6                 58.0832             0               
    30 t_1_7                       0             0               
    31 t_2_7                       0             0               
    32 t_1_8                       0             0               
    33 t_2_8                       0             0               
    34 r_1_1_2      *              1             0             1 
    35 u_1_1_2      *              0             0             1 
    36 r_2_1_2      *              1             0             1 
    37 u_2_1_2      *              0             0             1 
    38 r_1_1_3      *              1             0             1 
    39 u_1_1_3      *              0             0             1 
    40 r_2_1_3      *              1             0             1 
    41 u_2_1_3      *              0             0             1 
    42 r_1_1_4      *              1             0             1 
    43 u_1_1_4      *              0             0             1 
    44 r_2_1_4      *              1             0             1 
    45 u_2_1_4      *              0             0             1 
    46 r_1_1_5      *              1             0             1 
    47 u_1_1_5      *              0             0             1 
    48 r_2_1_5      *              1             0             1 
    49 u_2_1_5      *              0             0             1 
    50 r_1_2_3      *              0             0             1 
    51 u_1_2_3      *              0             0             1 
    52 r_2_2_3      *              1             0             1 
    53 u_2_2_3      *              0             0             1 
    54 r_1_2_4      *              0             0             1 
    55 u_1_2_4      *              0             0             1 
    56 r_2_2_4      *              1             0             1 
    57 u_2_2_4      *              0             0             1 
    58 r_1_2_5      *              0             0             1 
    59 u_1_2_5      *              0             0             1 
    60 r_2_2_5      *              1             0             1 
    61 u_2_2_5      *              0             0             1 
    62 r_1_2_8      *              1             0             1 
    63 u_1_2_8      *              0             0             1 
    64 r_2_2_8      *              1             0             1 
    65 u_2_2_8      *              0             0             1 
    66 r_1_3_4      *              0             0             1 
    67 u_1_3_4      *              0             0             1 
    68 r_2_3_4      *              1             0             1 
    69 u_2_3_4      *              0             0             1 
    70 r_1_3_5      *              0             0             1 
    71 u_1_3_5      *              1             0             1 
    72 r_2_3_5      *              1             0             1 
    73 u_2_3_5      *              0             0             1 
    74 r_1_4_5      *              0             0             1 
    75 u_1_4_5      *              1             0             1 
    76 r_2_4_5      *              1             0             1 
    77 u_2_4_5      *              0             0             1 
    78 r_1_4_8      *              1             0             1 
    79 u_1_4_8      *              0             0             1 
    80 r_2_4_8      *              1             0             1 
    81 u_2_4_8      *              0             0             1 
    82 r_1_5_7      *              0             0             1 
    83 u_1_5_7      *              1             0             1 
    84 r_2_5_7      *              1             0             1 
    85 u_2_5_7      *              0             0             1 
    86 r_1_7_8      *              1             0             1 
    87 u_1_7_8      *              0             0             1 
    88 r_2_7_8      *              1             0             1 
    89 u_2_7_8      *              0             0             1 

Integer feasibility conditions:

KKT.PE: max.abs.err = 2.27e-13 on row 14
        max.rel.err = 1.08e-16 on row 14
        High quality

KKT.PB: max.abs.err = 1.14e-13 on row 135
        max.rel.err = 1.15e-16 on row 176
        High quality

End of output
